(set-logic QF_SLIA)
(set-option :produce-models true)
(declare-const X String)
; [-+]((0[0-9]|1[0-3]):([03]0|45)|14:00)
(assert (not (str.in_re X (re.++ (re.union (str.to_re "-") (str.to_re "+")) (re.union (re.++ (re.union (re.++ (str.to_re "0") (re.range "0" "9")) (re.++ (str.to_re "1") (re.range "0" "3"))) (str.to_re ":") (re.union (re.++ (re.union (str.to_re "0") (str.to_re "3")) (str.to_re "0")) (str.to_re "45"))) (str.to_re "14:00")) (str.to_re "\u{0a}")))))
; ^((\\{2}\w+)\$?)((\\{1}\w+)*$)
(assert (str.in_re X (re.++ (re.* (re.++ ((_ re.loop 1 1) (str.to_re "\u{5c}")) (re.+ (re.union (re.range "0" "9") (re.range "A" "Z") (re.range "a" "z") (str.to_re "_"))))) (str.to_re "\u{0a}") (re.opt (str.to_re "$")) ((_ re.loop 2 2) (str.to_re "\u{5c}")) (re.+ (re.union (re.range "0" "9") (re.range "A" "Z") (re.range "a" "z") (str.to_re "_"))))))
; /filename=[^\n]*\u{2e}zip/i
(assert (not (str.in_re X (re.++ (str.to_re "/filename=") (re.* (re.comp (str.to_re "\u{0a}"))) (str.to_re ".zip/i\u{0a}")))))
(check-sat)
